============= START OF PW INPUT =============
&CONTROL
 calculation='scf'
 dipfield=.false.
 disk_io='low'
 dt=20.0
 etot_conv_thr=0.0001
 forc_conv_thr=0.001
 iprint=100000
 max_seconds=10000000
 outdir='/scratch/pdelugas/espresso-xsd/tempdir/'
 prefix='al'
 pseudo_dir='/scratch/pdelugas/espresso-xsd/pseudo/'
 restart_mode='from_scratch'
 title=''
 tprnfor=.true.
 tstress=.true.
 verbosity='low'
 wf_collect=.false.
/
&SYSTEM
 degauss=0.05
 ecutwfc=15.0
 force_symmorphic=.false.
 ibrav=0
 input_dft='PZ'
 lspinorb=.false.
 nat=1
 no_t_rev=.false.
 noinv=.false.
 noncolin=.false.
 nosym=.false.
 nosym_evc=.false.
 nspin=1
 ntyp=1
 occupations='smearing'
 smearing='mv'
 starting_magnetization(1)=0.0
 tot_charge=0.0
 use_all_frac=.false.
/
&ELECTRONS
 conv_thr=1e-06
 diago_cg_maxiter=20
 diago_full_acc=.false.
 diago_thr_init=0.0
 diagonalization='davidson'
 electron_maxstep=100
 mixing_beta=0.7
 mixing_mode='plain'
 mixing_ndim=8
 tqr=.false.
/
&IONS
 ion_dynamics='none'
 refold_pos=.false.
 remove_rigid_rot=.false.
/
&CELL
 cell_dynamics='none'
 cell_factor=0.0
 press_conv_thr=0.5
 wmass=24590.77
/
ATOMIC_SPECIES
 Al 26.98 Al.pz-vbc.UPF
ATOMIC_POSITIONS bohr
 Al 0.0 0.0 0.0
K_POINTS
 60
 0.0625 0.0625 0.0625 1.0
 0.0625 0.0625 0.1875 3.0
 0.0625 0.0625 0.3125 3.0
 0.0625 0.0625 0.4375 3.0
 0.0625 0.0625 0.5625 3.0
 0.0625 0.0625 0.6875 3.0
 0.0625 0.0625 0.8125 3.0
 0.0625 0.0625 0.9375 3.0
 0.0625 0.1875 0.1875 3.0
 0.0625 0.1875 0.3125 6.0
 0.0625 0.1875 0.4375 6.0
 0.0625 0.1875 0.5625 6.0
 0.0625 0.1875 0.6875 6.0
 0.0625 0.1875 0.8125 6.0
 0.0625 0.1875 0.9375 6.0
 0.0625 0.3125 0.3125 3.0
 0.0625 0.3125 0.4375 6.0
 0.0625 0.3125 0.5625 6.0
 0.0625 0.3125 0.6875 6.0
 0.0625 0.3125 0.8125 6.0
 0.0625 0.3125 0.9375 6.0
 0.0625 0.4375 0.4375 3.0
 0.0625 0.4375 0.5625 6.0
 0.0625 0.4375 0.6875 6.0
 0.0625 0.4375 0.8125 6.0
 0.0625 0.4375 0.9375 6.0
 0.0625 0.5625 0.5625 3.0
 0.0625 0.5625 0.6875 6.0
 0.0625 0.5625 0.8125 6.0
 0.0625 0.6875 0.6875 3.0
 0.0625 0.6875 0.8125 6.0
 0.0625 0.8125 0.8125 3.0
 0.1875 0.1875 0.1875 1.0
 0.1875 0.1875 0.3125 3.0
 0.1875 0.1875 0.4375 3.0
 0.1875 0.1875 0.5625 3.0
 0.1875 0.1875 0.6875 3.0
 0.1875 0.1875 0.8125 3.0
 0.1875 0.3125 0.3125 3.0
 0.1875 0.3125 0.4375 6.0
 0.1875 0.3125 0.5625 6.0
 0.1875 0.3125 0.6875 6.0
 0.1875 0.3125 0.8125 6.0
 0.1875 0.4375 0.4375 3.0
 0.1875 0.4375 0.5625 6.0
 0.1875 0.4375 0.6875 6.0
 0.1875 0.4375 0.8125 6.0
 0.1875 0.5625 0.5625 3.0
 0.1875 0.5625 0.6875 6.0
 0.1875 0.6875 0.6875 3.0
 0.3125 0.3125 0.3125 1.0
 0.3125 0.3125 0.4375 3.0
 0.3125 0.3125 0.5625 3.0
 0.3125 0.3125 0.6875 3.0
 0.3125 0.4375 0.4375 3.0
 0.3125 0.4375 0.5625 6.0
 0.3125 0.4375 0.6875 6.0
 0.3125 0.5625 0.5625 3.0
 0.4375 0.4375 0.4375 1.0
 0.4375 0.4375 0.5625 3.0
CELL_PARAMETERS bohr
 -3.75 0.0 3.75
 0.0 3.75 3.75
 -3.75 3.75 0.0
============= END OF PW INPUT =============

