============= START OF PW INPUT =============
&CONTROL
 calculation='scf'
 dipfield=.false.
 disk_io='low'
 dt=20.0
 etot_conv_thr=0.0001
 forc_conv_thr=0.001
 iprint=100000
 max_seconds=10000000
 outdir='/scratch/pdelugas/espresso-xsd/tempdir/'
 prefix='pwscf'
 pseudo_dir='/scratch/pdelugas/espresso-xsd/pseudo/'
 restart_mode='from_scratch'
 title=''
 tprnfor=.false.
 tstress=.false.
 verbosity='low'
 wf_collect=.false.
/
&SYSTEM
 ecutwfc=30.0
 force_symmorphic=.false.
 ibrav=0
 input_dft='PZ'
 lspinorb=.false.
 nat=5
 nbnd=25
 no_t_rev=.false.
 noinv=.false.
 noncolin=.false.
 nosym=.false.
 nosym_evc=.false.
 nspin=1
 ntyp=3
 occupations='fixed'
 starting_magnetization(1)=0.0
 starting_magnetization(2)=0.0
 starting_magnetization(3)=0.0
 tot_charge=0.0
 use_all_frac=.false.
/
&ELECTRONS
 conv_thr=1e-12
 diago_cg_maxiter=20
 diago_full_acc=.false.
 diago_thr_init=0.0
 diagonalization='davidson'
 electron_maxstep=100
 mixing_beta=0.3
 mixing_mode='plain'
 mixing_ndim=8
 tqr=.false.
/
&IONS
 ion_dynamics='none'
 refold_pos=.false.
 remove_rigid_rot=.false.
/
&CELL
 cell_dynamics='none'
 cell_factor=0.0
 press_conv_thr=0.5
 wmass=276227.0
/
ATOMIC_SPECIES
 Pb 207.2 Pb.pz-d-van.UPF
 Ti 47.867 Ti.pz-sp-van_ak.UPF
 O 15.9994 O.pz-van_ak.UPF
ATOMIC_POSITIONS bohr
 Pb 0.0 0.0 0.073699
 Ti 3.68495 3.68495 3.68495
 O 0.0 3.68495 3.68495
 O 3.68495 3.68495 0.0
 O 3.68495 0.0 3.68495
K_POINTS automatic
 4 4 4 1 1 1
CELL_PARAMETERS bohr
 7.3699 0.0 0.0
 0.0 7.3699 0.0
 0.0 0.0 7.3699
============= END OF PW INPUT =============

