&CONTROL
 calculation='scf'
 dipfield=.false.
 disk_io='low'
 dt=20.0
 etot_conv_thr=0.0001
 forc_conv_thr=0.001
 input_xml_schema_file='Fe_non_collinear_penalty.xml'
 iprint=100000
 max_seconds=10000000
 outdir='/scratch/pdelugas/espresso-xsd/tempdir/'
 prefix='fe'
 pseudo_dir='/scratch/pdelugas/espresso-xsd/pseudo/'
 restart_mode='from_scratch'
 title=''
 tprnfor=.false.
 tstress=.false.
 verbosity='low'
 wf_collect=.false.
/
&SYSTEM
 constrained_magnetization='atomic'
 degauss=0.05
 ecutrho=200.0
 ecutwfc=25.0
 fixed_magnetization=[0.0, 0.0, 0.0]
 force_symmorphic=.false.
 ibrav=0
 input_dft='PZ'
 lambda=1.0
 lspinorb=.false.
 nat=1
 no_t_rev=.false.
 noinv=.false.
 noncolin=.false.
 nosym=.false.
 nosym_evc=.false.
 nspin=1
 ntyp=1
 occupations='smearing'
 smearing='mv'
 starting_magnetization(1)=0.5
 tot_charge=0.0
 use_all_frac=.false.
/
&ELECTRONS
 conv_thr=1e-08
 diago_cg_maxiter=20
 diago_full_acc=.false.
 diago_thr_init=0.0
 diagonalization='davidson'
 electron_maxstep=100
 mixing_beta=0.2
 mixing_mode='plain'
 mixing_ndim=8
 tqr=.false.
/
&IONS
 ion_dynamics='none'
 refold_pos=.false.
 remove_rigid_rot=.false.
/
&CELL
 cell_dynamics='none'
 cell_factor=0.0
 press_conv_thr=0.5
 wmass=50901.43
/
ATOMIC_SPECIES
 Fe 55.847 Fe.pz-nd-rrkjus.UPF
ATOMIC_POSITIONS bohr
 Fe 0.0 0.0 0.0
K_POINTS
 11
 0.0625 0.0625 0.0625 1.0
 0.0625 0.0625 0.1875 3.0
 0.0625 0.0625 0.3125 3.0
 0.0625 0.0625 0.4375 3.0
 0.0625 0.0625 0.5625 3.0
 0.0625 0.0625 0.6875 3.0
 0.0625 0.0625 0.8125 3.0
 0.0625 0.0625 0.9375 3.0
 0.0625 0.1875 0.1875 3.0
 0.0625 0.1875 0.3125 6.0
 0.0625 0.1875 0.4375 6.0
CELL_PARAMETERS bohr
 0.5 0.5 0.5
 -0.5 0.5 0.5
 -0.5 -0.5 0.5